ID_groupA
10065
10065
8611
10065
10065
10065
10065
10065
10065
10065
10065
10065
10065
10065
18298
8611
10065
19730
10065
16138
10065
10065
10065
16138
10065
10065
10065
8611
18298
19730
16138
18298
10065
18298
10065
16138
18298
18298
18298
8611
19730
8611
8611
8611
8611
8611
8611
8611
8611
8611
19730
16138
16138
16138
10065
10065
16138
16138
16138
16138
19730
10065
19730
19730
19730
19730
19730
10065
10065
16138
16138
10065
10065
16138
16138
16138
16138
16138
16138
16138
16138
16138
16138
16138
10065
10065
16138
10065
16138
16138
10065
16138
10065
10065
10065
16138
10065
10065
10065
16138
16138
16138
10065
10065
16138
